% =============================================================================
% Generated CLP Test Instance (v2.0)
% =============================================================================
% Generator: AVISPA CLP Instance Generator v2.0.0 (Modular)
% Generated: 2026-03-26 14:59:52
%
% Instance Characteristics:
%   - Buses: 5
%   - Stations: 8
%   - Max stops per bus: 6
%   - Actual stops per bus: [6, 6, 6, 6, 5]
%   - Total energy consumption: 4929 (scaled ×10)
%   - Average per bus: 986 (98.6 kWh)
%   - Usable capacity: 800 (80.0 kWh)
%
% Feasibility Analysis:
%   - Overconsumption factor: 1.23x
%   - Expected charges per bus: 0.2
%   - Pattern: Designed to force strategic charging
%
% All values scaled ×10 for integer arithmetic.
% Divide by 10 to get original units (kWh, minutes).
% =============================================================================

% --- Problem Dimensions ---
num_buses = 5;
num_stations = 8;

% --- Energy Parameters (CLP Model) ---
% All values scaled ×10 from kWh
Cmax = 1000;  % 100.0 kWh maximum capacity
Cmin = 200;  % 20.0 kWh minimum reserve
alpha = 100;  % 10.0 kWh/min charging rate

% --- Time and Schedule Parameters ---
% All values scaled ×10 from minutes
mu = 50;      % 5.0 min maximum delay
SM = 10;      % 1.0 min safety margin
psi = 10;     % 1.0 min minimum charging time
beta = 100;   % 10.0 min maximum charging time
M = 10000;      % Big-M constant

% --- Route Structure ---
max_stops = 6;
num_stops = [6,6,6,6,5];

% --- Station Sequence (st_bi) ---
% Maps each bus stop to a physical station ID (1-indexed)
% Station 1 is the depot (D=0, T=0)
st_bi = array2d(1..5, 1..6, [
  1,3,5,7,2,4,  % Bus 1
  1,2,3,4,5,6,  % Bus 2
  1,7,7,5,8,3,  % Bus 3
  1,3,5,7,2,4,  % Bus 4
  1,8,7,6,5,5  % Bus 5
]);

% --- Energy Consumption (D) ---
% Energy consumed between stops (scaled ×10, divide by 10 for kWh)
D = array2d(1..5, 1..6, [
  0,173,202,166,130,300,  % Bus 1
  0,223,241,160,146,290,  % Bus 2
  0,297,227,189,164,220,  % Bus 3
  0,220,186,142,152,300,  % Bus 4
  0,168,148,185,300,0  % Bus 5
]);

% --- Travel Time (T) ---
% Time between stops (scaled ×10, divide by 10 for minutes)
T = array2d(1..5, 1..6, [
  0,189,138,129,115,149,  % Bus 1
  0,68,162,115,150,169,  % Bus 2
  0,113,128,104,117,112,  % Bus 3
  0,192,111,137,79,138,  % Bus 4
  0,145,78,231,98,0  % Bus 5
]);

% --- Timetable (tau_bi) ---
% Scheduled arrival times (scaled ×10, divide by 10 for minutes since 00:00)
% Buses are staggered to reduce station conflicts
tau_bi = array2d(1..5, 1..6, [
  4200,4405,4559,4700,4840,5006,  % Bus 1
  4250,4327,4505,4629,4804,4996,  % Bus 2
  4300,4435,4571,4680,4814,4936,  % Bus 3
  4350,4561,4683,4837,4930,5090,  % Bus 4
  4400,4559,4644,4883,4988,5000  % Bus 5
]);
